
Gurobi 11.0.3 (linux64) logging started Mon 18 Nov 2024 08:36:34 PM CST

Set parameter LogFile to value "/home/dlcole3/graph_abstraction/hierarchical_graphs/git_storage/CS1/HP_low_reserves/gurobi_logs/serial/logfile_ST9_1.log"

Gurobi 11.0.3 (linux64) logging started Mon 18 Nov 2024 08:37:27 PM CST

Set parameter LogFile to value "/home/dlcole3/graph_abstraction/hierarchical_graphs/git_storage/CS1/HP_low_reserves/gurobi_logs/serial/logfile_ST9_1.log"
Gurobi Optimizer version 11.0.3 build v11.0.3rc0 (linux64 - "Ubuntu 18.04.3 LTS")

CPU model: Intel(R) Xeon(R) CPU E5-2698 v4 @ 2.20GHz, instruction set [SSE2|AVX|AVX2]
Thread count: 40 physical cores, 80 logical processors, using up to 20 threads

Optimize a model with 29168 rows, 50688 columns and 136175 nonzeros
Model fingerprint: 0x9a95eb12
Variable types: 46944 continuous, 3744 integer (3744 binary)
Coefficient statistics:
  Matrix range     [6e-01, 2e+04]
  Objective range  [2e+00, 2e+04]
  Bounds range     [5e-02, 2e+05]
  RHS range        [5e-02, 7e+03]
Presolve removed 14936 rows and 39155 columns
Presolve time: 0.35s
Presolved: 14232 rows, 11533 columns, 60687 nonzeros
Variable types: 8625 continuous, 2908 integer (2908 binary)
Found heuristic solution: objective 194169.27728
Found heuristic solution: objective 189657.70627
Found heuristic solution: objective 172500.35721

Root relaxation: objective 6.161329e+04, 7640 iterations, 0.34 seconds (0.25 work units)

    Nodes    |    Current Node    |     Objective Bounds      |     Work
 Expl Unexpl |  Obj  Depth IntInf | Incumbent    BestBd   Gap | It/Node Time

     0     0 61613.2878    0   16 172500.357 61613.2878  64.3%     -    1s
H    0     0                    118348.02758 61613.2878  47.9%     -    1s
H    0     0                    85922.297736 61613.2878  28.3%     -    1s
     0     0 61613.2878    0   25 85922.2977 61613.2878  28.3%     -    1s
     0     0 61613.2878    0   25 85922.2977 61613.2878  28.3%     -    2s
     0     0 61720.0397    0   24 85922.2977 61720.0397  28.2%     -    2s
     0     0 61720.0397    0   21 85922.2977 61720.0397  28.2%     -    2s
     0     0 61720.0397    0   28 85922.2977 61720.0397  28.2%     -    2s
H    0     0                    63010.535057 61720.0397  2.05%     -    2s
     0     0 61720.0397    0   32 63010.5351 61720.0397  2.05%     -    2s
     0     0 61720.0397    0   32 63010.5351 61720.0397  2.05%     -    2s
     0     0 61720.0397    0   13 63010.5351 61720.0397  2.05%     -    3s
     0     0 61720.0397    0   24 63010.5351 61720.0397  2.05%     -    3s
     0     0 61720.0397    0   35 63010.5351 61720.0397  2.05%     -    3s
     0     0 61722.7893    0   36 63010.5351 61722.7893  2.04%     -    4s
     0     0 61728.3242    0   35 63010.5351 61728.3242  2.03%     -    4s
     0     0 61744.9159    0   38 63010.5351 61744.9159  2.01%     -    4s
     0     0 61744.9159    0   40 63010.5351 61744.9159  2.01%     -    4s
     0     0 61744.9159    0   40 63010.5351 61744.9159  2.01%     -    4s
     0     2 61744.9159    0   40 63010.5351 61744.9159  2.01%     -    5s
H  104   100                    63010.535005 61793.6518  1.93%  27.5    5s
H  107   100                    63010.534969 61805.8790  1.91%  27.2    5s
H  110   100                    63010.534851 61805.8790  1.91%  26.7    5s
H  303   197                    63001.055440 61845.0466  1.83%  16.4    7s
H  304   197                    62880.941465 61845.0466  1.65%  16.4    7s
H  312   197                    62871.159341 61845.0466  1.63%  16.3    7s
H  522   354                    62871.159331 61845.0466  1.63%  12.4    8s
H  524   354                    62871.159149 61845.0466  1.63%  12.3    8s
H  529   354                    62871.159135 61845.0466  1.63%  12.2    8s
  1609   993 62550.5505   36   21 62871.1591 61883.4465  1.57%  10.0   10s
H 1613   993                    62871.159102 61883.4465  1.57%  10.0   10s
H 1619   993                    62871.158813 61883.4465  1.57%  10.0   10s
* 2246  1303              55    62812.692548 61972.1554  1.34%   9.8   10s
* 2291  1301              53    62810.851348 61972.1554  1.34%   9.9   10s
* 2569  1406              52    62754.369748 61972.1554  1.25%   9.8   11s
H 2607  1333                    62726.066608 61972.1554  1.20%   9.8   11s
H 3852  1827                    62725.823796 62143.1594  0.93%   9.4   12s
  3923  1879 62601.0080   20   15 62725.8238 62143.1594  0.93%  11.3   15s
H 3963  1802                    62725.823729 62143.1594  0.93%  11.4   15s
H 3965  1715                    62725.822974 62143.1594  0.93%  11.4   15s
H 4257  1736                    62725.822861 62143.1594  0.93%  12.3   16s
H 5319  1907                    62725.822786 62143.1594  0.93%  12.0   18s
H 5336  1828                    62722.582531 62143.1594  0.92%  12.0   18s
H 5353  1751                    62721.771811 62143.1594  0.92%  12.0   18s
  7007  1608 62472.7675   32   18 62721.7718 62143.1594  0.92%  12.7   20s
 10220  2080 62295.4048   27   11 62721.7718 62244.3358  0.76%  12.5   26s
H10254  2080                    62721.771752 62244.5414  0.76%  12.5   26s
H10311  2080                    62721.771674 62244.9680  0.76%  12.5   26s
H10324  1990                    62678.498846 62245.1335  0.69%  12.5   26s
H10559  2001                    62678.498826 62252.4294  0.68%  12.5   26s
H10567  2001                    62678.498497 62252.4294  0.68%  12.5   26s
H11732  1838                    62661.900410 62297.4722  0.58%  12.3   27s
H11738  1838                    62661.745173 62297.4722  0.58%  12.3   27s
H11739  1838                    62661.721963 62297.4722  0.58%  12.3   27s
H11741  1837                    62661.611851 62297.4722  0.58%  12.3   27s
H11746  1837                    62661.598351 62297.4722  0.58%  12.3   27s
H11746  1837                    62661.261951 62297.4722  0.58%  12.3   27s
H12746  1672                    62660.774851 62345.1809  0.50%  12.1   28s
*12748  1670              60    62660.598891 62345.1809  0.50%  12.1   28s

Cutting planes:
  Gomory: 2

Explored 16130 nodes (201341 simplex iterations) in 29.85 seconds (23.09 work units)
Thread count was 20 (of 80 available processors)

Solution count 10: 62660.6 62660.6 62661.3 ... 62810.9

Optimal solution found (tolerance 3.00e-03)
Best objective 6.266059889147e+04, best bound 6.254112908741e+04, gap 0.1907%

User-callback calls 41241, time in user-callback 0.03 sec
